Route #1: 67 34 46 8 52 27 45 29 48 47 74
Route #2: 62 28 61 22 64 42 43 41 56 23 1 73
Route #3: 33 63 16 49 24 18 55 25 50 32 44 3 51
Route #4: 26 12 72 58 10 31 39 9 40 17
Route #5: 7 35 53 14 59 11 66 65 38
Route #6: 19 54 13 57 15 5 37 20 70 60 71 36 69 21 30
Route #7: 6 2 68 4 75
Cost 723